p cnf 9 29
1 6 0
8 -2 -7 0
-1 5 -3 -4 0
9 -7 5 0
4 9 -8 0
-3 1 9 -4 8 0
-8 -4 1 -3 0
8 -2 -6 -3 -4 -5 -1 7 9 0
-6 -5 0
-9 -8 3 -6 0
-7 1 -8 0
-3 -9 1 6 0
-3 7 -4 -1 0
6 -3 0
8 -3 6 7 2 -9 1 5 4 0
8 -4 5 -2 -6 3 1 0
-1 5 -8 0
7 5 2 0
4 7 0
2 -4 -3 8 7 0
-1 6 5 0
6 -7 3 0
1 6 -9 0
5 2 8 1 0
5 2 -1 0
3 9 8 0
1 -6 7 0
-7 -5 -2 0
7 -4 0
